language Essence 1.3

letting blksize_delta be
        function(1 --> 8, 2 --> 8, 3 --> 8, 4 --> 9, 5 --> 8, 6 --> 9, 7 --> 8, 8 --> 8, 9 --> 8, 10 --> 9, 11 --> 8,
                 12 --> 9, 13 --> 10, 14 --> 8, 15 --> 8, 16 --> 8, 17 --> 8, 18 --> 8, 19 --> 10, 20 --> 8, 21 --> 8,
                 22 --> 8, 23 --> 8, 24 --> 8)
letting maxcars be
        function(1 --> 9, 2 --> 9, 3 --> 9, 4 --> 9, 5 --> 9, 6 --> 10, 7 --> 9, 8 --> 9, 9 --> 9, 10 --> 9, 11 --> 9,
                 12 --> 9, 13 --> 9, 14 --> 9, 15 --> 9, 16 --> 9, 17 --> 9, 18 --> 9, 19 --> 9, 20 --> 9, 21 --> 9,
                 22 --> 9, 23 --> 9, 24 --> 9)
letting n_cars be 202
letting n_classes be 24
letting n_options be 24
letting quantity be
        function(1 --> 8, 2 --> 18, 3 --> 8, 4 --> 8, 5 --> 8, 6 --> 8, 7 --> 8, 8 --> 8, 9 --> 8, 10 --> 8, 11 --> 8,
                 12 --> 8, 13 --> 8, 14 --> 8, 15 --> 8, 16 --> 8, 17 --> 8, 18 --> 8, 19 --> 8, 20 --> 8, 21 --> 8,
                 22 --> 8, 23 --> 8, 24 --> 8)
letting usage be
        relation((1, 7), (1, 14), (1, 21), (2, 22), (2, 23), (3, 6), (3, 8), (4, 1), (4, 12), (4, 20), (5, 8), (6, 12),
                 (6, 14), (6, 15), (6, 16), (6, 17), (6, 21), (6, 24), (7, 1), (7, 24), (8, 4), (8, 10), (8, 11),
                 (8, 12), (8, 17), (9, 23), (10, 9), (10, 10), (10, 22), (11, 11), (11, 13), (11, 24), (12, 13),
                 (12, 15), (12, 20), (12, 22), (13, 7), (13, 19), (13, 24), (14, 6), (14, 16), (15, 13), (15, 24),
                 (16, 16), (17, 3), (17, 11), (17, 23), (18, 2), (18, 14), (18, 22), (19, 3), (19, 5), (19, 9),
                 (19, 10), (19, 14), (19, 17), (19, 24), (20, 9), (20, 13), (20, 14), (20, 22), (21, 3), (21, 15),
                 (22, 4), (22, 7), (23, 1), (23, 18), (23, 20), (24, 8), (24, 17))
$ Visualisation for usage
$  1  7
$  1 14
$  1 21
$  2 22
$  2 23
$  3  6
$  3  8
$  4  1
$  4 12
$  4 20
$  5  8
$  6 12
$  6 14
$  6 15
$  6 16
$  6 17
$  6 21
$  6 24
$  7  1
$  7 24
$  8  4
$  8 10
$  8 11
$  8 12
$  8 17
$  9 23
$ 10  9
$ 10 10
$ 10 22
$ 11 11
$ 11 13
$ 11 24
$ 12 13
$ 12 15
$ 12 20
$ 12 22
$ 13  7
$ 13 19
$ 13 24
$ 14  6
$ 14 16
$ 15 13
$ 15 24
$ 16 16
$ 17  3
$ 17 11
$ 17 23
$ 18  2
$ 18 14
$ 18 22
$ 19  3
$ 19  5
$ 19  9
$ 19 10
$ 19 14
$ 19 17
$ 19 24
$ 20  9
$ 20 13
$ 20 14
$ 20 22
$ 21  3
$ 21 15
$ 22  4
$ 22  7
$ 23  1
$ 23 18
$ 23 20
$ 24  8
$ 24 17

